
(model
  (define-fun d () (Array (Array Bool Bool) (Array Bool Bool)) ((as const (Array (Array Bool Bool) (Array Bool Bool))) ((as const (Array Bool Bool)) true)))
  (define-fun c () (Array (Array Bool Bool) (Array Bool Bool)) ((as const (Array (Array Bool Bool) (Array Bool Bool))) ((as const (Array Bool Bool)) true)))
)
